p cnf 604 257-55 -51 0
-55 49 0
55 51 -49 0
-56 51 0
-56 -49 0
56 -51 49 0
-57 -55 0
-57 -56 0
57 55 56 0
-58 -52 0
-58 50 0
58 52 -50 0
-59 52 0
-59 -50 0
59 -52 50 0
-60 -58 0
-60 -59 0
60 58 59 0
-61 57 0
-61 60 0
61 -57 -60 0
-62 54 0
-62 -53 0
62 -54 53 0
-63 -54 0
-63 53 0
63 54 -53 0
-64 -62 0
-64 -63 0
64 62 63 0
-61 64 0
-66 33 0
-66 17 0
66 -33 -17 0
-67 34 0
-67 66 0
67 -34 -66 0
-68 -34 0
-68 -66 0
68 34 66 0
-69 -67 0
-69 -68 0
69 67 68 0
70 -18 0
70 69 0
-70 18 -69 0
-71 18 0
-71 -69 0
71 -18 69 0
-72 70 0
-72 -71 0
72 -70 71 0
-73 2 0
-73 72 0
73 -2 -72 0
-74 -2 0
-74 -72 0
74 2 72 0
-75 -73 0
-75 -74 0
75 73 74 0
-76 -33 0
-76 -17 0
76 33 17 0
77 -66 0
77 -76 0
-77 66 76 0
-78 1 0
-78 77 0
78 -1 -77 0
-79 -1 0
-79 -77 0
79 1 77 0
-80 -78 0
-80 -79 0
80 78 79 0
-81 75 0
-81 80 0
81 -75 -80 0
-82 -18 0
-82 -67 0
82 18 67 0
83 -68 0
83 -82 0
-83 68 82 0
-84 35 0
-84 -83 0
84 -35 83 0
-85 -35 0
-85 83 0
85 35 -83 0
-86 -84 0
-86 -85 0
86 84 85 0
87 -19 0
87 86 0
-87 19 -86 0
-88 19 0
-88 -86 0
88 -19 86 0
-89 87 0
-89 -88 0
89 -87 88 0
-90 3 0
-90 89 0
90 -3 -89 0
-91 -3 0
-91 -89 0
91 3 89 0
-92 -90 0
-92 -91 0
92 90 91 0
-93 81 0
-93 92 0
93 -81 -92 0
-94 -19 0
-94 -84 0
94 19 84 0
95 -85 0
95 -94 0
-95 85 94 0
-96 36 0
-96 -95 0
96 -36 95 0
-97 -36 0
-97 95 0
97 36 -95 0
-98 -96 0
-98 -97 0
98 96 97 0
99 -20 0
99 98 0
-99 20 -98 0
-100 20 0
-100 -98 0
100 -20 98 0
-101 99 0
-101 -100 0
101 -99 100 0
-102 4 0
-102 101 0
102 -4 -101 0
-103 -4 0
-103 -101 0
103 4 101 0
-104 -102 0
-104 -103 0
104 102 103 0
-105 93 0
-105 104 0
105 -93 -104 0
-106 -20 0
-106 -96 0
106 20 96 0
107 -97 0
107 -106 0
-107 97 106 0
-108 37 0
-108 -107 0
108 -37 107 0
-109 -37 0
-109 107 0
109 37 -107 0
-110 -108 0
-110 -109 0
110 108 109 0
111 -21 0
111 110 0
-111 21 -110 0
-112 21 0
-112 -110 0
112 -21 110 0
-113 111 0
-113 -112 0
113 -111 112 0
-114 5 0
-114 113 0
114 -5 -113 0
-115 -5 0
-115 -113 0
115 5 113 0
-116 -114 0
-116 -115 0
116 114 115 0
-117 105 0
-117 116 0
117 -105 -116 0
-118 -21 0
-118 -108 0
118 21 108 0
119 -109 0
119 -118 0
-119 109 118 0
-120 38 0
-120 -119 0
120 -38 119 0
-121 -38 0
-121 119 0
121 38 -119 0
-122 -120 0
-122 -121 0
122 120 121 0
123 -22 0
123 122 0
-123 22 -122 0
-124 22 0
-124 -122 0
124 -22 122 0
-125 123 0
-125 -124 0
125 -123 124 0
-126 6 0
-126 125 0
126 -6 -125 0
-127 -6 0
-127 -125 0
127 6 125 0
-128 -126 0
-128 -127 0
128 126 127 0
-129 117 0
-129 128 0
129 -117 -128 0
-130 -22 0
-130 -120 0
130 22 120 0
131 -121 0
131 -130 0
-131 121 130 0
-132 39 0
-132 -131 0
132 -39 131 0
-133 -39 0
-133 131 0
133 39 -131 0
-134 -132 0
-134 -133 0
134 132 133 0
135 -23 0
135 134 0
-135 23 -134 0
-136 23 0
-136 -134 0
136 -23 134 0
-137 135 0
-137 -136 0
137 -135 136 0
-138 7 0
-138 137 0
138 -7 -137 0
-139 -7 0
-139 -137 0
139 7 137 0
-140 -138 0
-140 -139 0
140 138 139 0
-141 129 0
-141 140 0
141 -129 -140 0
-142 -23 0
-142 -132 0
142 23 132 0
143 -133 0
143 -142 0
-143 133 142 0
-144 40 0
-144 -143 0
144 -40 143 0
-145 -40 0
-145 143 0
145 40 -143 0
-146 -144 0
-146 -145 0
146 144 145 0
147 -24 0
147 146 0
-147 24 -146 0
-148 24 0
-148 -146 0
148 -24 146 0
-149 147 0
-149 -148 0
149 -147 148 0
-150 8 0
-150 149 0
150 -8 -149 0
-151 -8 0
-151 -149 0
151 8 149 0
-152 -150 0
-152 -151 0
152 150 151 0
-153 141 0
-153 152 0
153 -141 -152 0
-154 -24 0
-154 -144 0
154 24 144 0
155 -145 0
155 -154 0
-155 145 154 0
-156 41 0
-156 -155 0
156 -41 155 0
-157 -41 0
-157 155 0
157 41 -155 0
-158 -156 0
-158 -157 0
158 156 157 0
159 -25 0
159 158 0
-159 25 -158 0
-160 25 0
-160 -158 0
160 -25 158 0
-161 159 0
-161 -160 0
161 -159 160 0
-162 9 0
-162 161 0
162 -9 -161 0
-163 -9 0
-163 -161 0
163 9 161 0
-164 -162 0
-164 -163 0
164 162 163 0
-165 153 0
-165 164 0
165 -153 -164 0
-166 -25 0
-166 -156 0
166 25 156 0
167 -157 0
167 -166 0
-167 157 166 0
-168 42 0
-168 -167 0
168 -42 167 0
-169 -42 0
-169 167 0
169 42 -167 0
-170 -168 0
-170 -169 0
170 168 169 0
171 -26 0
171 170 0
-171 26 -170 0
-172 26 0
-172 -170 0
172 -26 170 0
-173 171 0
-173 -172 0
173 -171 172 0
-174 10 0
-174 173 0
174 -10 -173 0
-175 -10 0
-175 -173 0
175 10 173 0
-176 -174 0
-176 -175 0
176 174 175 0
-177 165 0
-177 176 0
177 -165 -176 0
-178 -26 0
-178 -168 0
178 26 168 0
179 -169 0
179 -178 0
-179 169 178 0
-180 43 0
-180 -179 0
180 -43 179 0
-181 -43 0
-181 179 0
181 43 -179 0
-182 -180 0
-182 -181 0
182 180 181 0
183 -27 0
183 182 0
-183 27 -182 0
-184 27 0
-184 -182 0
184 -27 182 0
-185 183 0
-185 -184 0
185 -183 184 0
-186 11 0
-186 185 0
186 -11 -185 0
-187 -11 0
-187 -185 0
187 11 185 0
-188 -186 0
-188 -187 0
188 186 187 0
-189 177 0
-189 188 0
189 -177 -188 0
-190 -27 0
-190 -180 0
190 27 180 0
191 -181 0
191 -190 0
-191 181 190 0
-192 44 0
-192 -191 0
192 -44 191 0
-193 -44 0
-193 191 0
193 44 -191 0
-194 -192 0
-194 -193 0
194 192 193 0
195 -28 0
195 194 0
-195 28 -194 0
-196 28 0
-196 -194 0
196 -28 194 0
-197 195 0
-197 -196 0
197 -195 196 0
-198 12 0
-198 197 0
198 -12 -197 0
-199 -12 0
-199 -197 0
199 12 197 0
-200 -198 0
-200 -199 0
200 198 199 0
-201 189 0
-201 200 0
201 -189 -200 0
-202 -28 0
-202 -192 0
202 28 192 0
203 -193 0
203 -202 0
-203 193 202 0
-204 45 0
-204 -203 0
204 -45 203 0
-205 -45 0
-205 203 0
205 45 -203 0
-206 -204 0
-206 -205 0
206 204 205 0
207 -29 0
207 206 0
-207 29 -206 0
-208 29 0
-208 -206 0
208 -29 206 0
-209 207 0
-209 -208 0
209 -207 208 0
-210 13 0
-210 209 0
210 -13 -209 0
-211 -13 0
-211 -209 0
211 13 209 0
-212 -210 0
-212 -211 0
212 210 211 0
-213 201 0
-213 212 0
213 -201 -212 0
-214 -29 0
-214 -204 0
214 29 204 0
215 -205 0
215 -214 0
-215 205 214 0
-216 46 0
-216 -215 0
216 -46 215 0
-217 -46 0
-217 215 0
217 46 -215 0
-218 -216 0
-218 -217 0
218 216 217 0
219 -30 0
219 218 0
-219 30 -218 0
-220 30 0
-220 -218 0
220 -30 218 0
-221 219 0
-221 -220 0
221 -219 220 0
-222 14 0
-222 221 0
222 -14 -221 0
-223 -14 0
-223 -221 0
223 14 221 0
-224 -222 0
-224 -223 0
224 222 223 0
-225 213 0
-225 224 0
225 -213 -224 0
-226 -30 0
-226 -216 0
226 30 216 0
227 -217 0
227 -226 0
-227 217 226 0
-228 47 0
-228 -227 0
228 -47 227 0
-229 -47 0
-229 227 0
229 47 -227 0
-230 -228 0
-230 -229 0
230 228 229 0
231 -31 0
231 230 0
-231 31 -230 0
-232 31 0
-232 -230 0
232 -31 230 0
-233 231 0
-233 -232 0
233 -231 232 0
-234 15 0
-234 233 0
234 -15 -233 0
-235 -15 0
-235 -233 0
235 15 233 0
-236 -234 0
-236 -235 0
236 234 235 0
-237 225 0
-237 236 0
237 -225 -236 0
-238 -31 0
-238 -228 0
238 31 228 0
239 -229 0
239 -238 0
-239 229 238 0
-240 -48 0
-240 239 0
240 48 -239 0
-241 48 0
-241 -239 0
241 -48 239 0
-242 -240 0
-242 -241 0
242 240 241 0
243 -32 0
243 242 0
-243 32 -242 0
-244 32 0
-244 -242 0
244 -32 242 0
-245 243 0
-245 -244 0
245 -243 244 0
-246 16 0
-246 245 0
246 -16 -245 0
-247 -16 0
-247 -245 0
247 16 245 0
-248 -246 0
-248 -247 0
248 246 247 0
-249 237 0
-249 248 0
249 -237 -248 0
-250 -52 0
-250 -249 0
250 52 249 0
-251 52 0
-251 249 0
251 -52 -249 0
-252 -250 0
-252 -251 0
252 250 251 0
-253 51 0
-253 252 0
253 -51 -252 0
-253 -63 0
-255 50 0
-255 49 0
255 -50 -49 0
-53 -255 0
-257 -50 0
-257 -49 0
257 50 49 0
53 -257 0
